46501 34222 100 99 98 97 96 94 93 92 90 89 87 86 85 84 82 81 80 78 76 75 74 73 70 69 68 67 65 64 63 60 59 58 56 55 54 49 48 47 45 44 42 41 40 39 38 36 35 34 33 32 30 28 27 25 24 23 22 21 20 19 17 16 15 13 12 10 9 8 7 6 5 4 3 2 